20
5
4
61	27	42	13	55	
86	92	93	47	48	
16	8	32	6	56	
42	65	30	70	84	
14	34	16	19	22	
92	6	95	97	51	
67	42	58	41	43	
77	39	12	1	50	
46	2	95	57	62	
41	7	21	60	61	
78	85	74	62	10	
3	32	38	14	87	
72	14	4	90	99	
95	74	31	76	40	
53	59	62	12	91	
59	95	39	89	64	
34	48	97	37	62	
66	37	57	35	53	
42	59	9	91	33	
63	4	54	69	16	